words_hard_train/6449.qaiger
aag 138 16 0 1 122
2
4
8
12
16
20
24
28
36
44
60
76
92
108
124
166
276
6 3 5
10 6 9
14 10 13
18 14 17
22 18 21
26 22 25
30 26 29
32 27 28
34 31 33
38 36 2
40 2 4
42 41 7
46 43 45
48 42 44
50 47 49
52 38 50
54 53 49
56 7 8
58 57 11
62 59 61
64 58 60
66 63 65
68 55 66
70 69 65
72 11 12
74 73 15
78 75 77
80 74 76
82 79 81
84 71 82
86 85 81
88 15 16
90 89 19
94 91 93
96 90 92
98 95 97
100 87 98
102 101 97
104 19 20
106 105 23
110 107 109
112 106 108
114 111 113
116 103 114
118 117 113
120 23 24
122 121 27
126 123 125
128 122 124
130 127 129
132 119 130
134 133 129
136 34 135
138 35 134
140 137 139
142 39 51
144 143 53
146 145 125
148 144 124
150 147 149
152 150 108
154 37 3
156 155 39
158 152 156
160 159 149
162 54 67
164 163 69
168 165 167
170 164 166
172 169 171
174 161 172
176 175 171
178 70 83
180 179 85
182 181 167
184 180 166
186 183 185
188 177 186
190 189 185
192 86 99
194 193 101
196 195 167
198 194 166
200 197 199
202 191 200
204 203 199
206 102 115
208 207 117
210 209 167
212 208 166
214 211 213
216 205 214
218 217 213
220 118 131
222 221 133
224 223 167
226 222 166
228 225 227
230 219 228
232 231 227
234 141 233
236 140 232
238 235 237
240 176 187
242 241 189
244 160 173
246 245 175
248 243 247
250 151 109
252 250 157
254 253 159
256 190 201
258 257 203
260 255 259
262 204 215
264 263 217
266 260 265
268 218 229
270 269 231
272 266 271
274 248 272
276 238 275
i0 1 x1[0]
i1 1 x1[1]
i2 1 x1[2]
i3 1 x1[3]
i4 1 x1[4]
i5 1 x1[5]
i6 1 x1[6]
i7 1 x1[7]
i8 2 y2[0]
i9 2 y2[1]
i10 2 y2[2]
i11 2 y2[3]
i12 2 y2[4]
i13 2 y2[5]
i14 2 y2[6]
i15 2 y2[7]
o0 bv[0]
c
simplified
  >=
    add
      subtract
        2 y2
        1 x1
      >> 5
        2 y2
    1
