words_hard_train/6449.qaiger.qdimacs
p cnf 138 367
a 1 2 4 6 8 10 12 14 0
e 3 5 7 9 11 13 15 16 17 18 19 20 21 22 23 24 25 26 27 28 29 30 31 32 33 34 35 36 37 38 39 40 41 42 43 44 45 46 47 48 49 50 51 52 53 54 55 56 57 58 59 60 61 62 63 64 65 66 67 68 69 70 71 72 73 74 75 76 77 78 79 80 81 82 83 84 85 86 87 88 89 90 91 92 93 94 95 96 97 98 99 100 101 102 103 104 105 106 107 108 109 110 111 112 113 114 115 116 117 118 119 120 121 122 123 124 125 126 127 128 129 130 131 132 133 134 135 136 137 138 0
1 2 3 0
-1 -3 0
-2 -3 0
-3 4 5 0
3 -5 0
-4 -5 0
-5 6 7 0
5 -7 0
-6 -7 0
-7 8 9 0
7 -9 0
-8 -9 0
-9 10 11 0
9 -11 0
-10 -11 0
-11 12 13 0
11 -13 0
-12 -13 0
-13 14 15 0
13 -15 0
-14 -15 0
13 -14 16 0
-13 -16 0
14 -16 0
15 16 17 0
-15 -17 0
-16 -17 0
-18 -1 19 0
18 -19 0
1 -19 0
-1 -2 20 0
1 -20 0
2 -20 0
20 3 21 0
-20 -21 0
-3 -21 0
21 22 23 0
-21 -23 0
-22 -23 0
-21 -22 24 0
21 -24 0
22 -24 0
23 24 25 0
-23 -25 0
-24 -25 0
-19 -25 26 0
19 -26 0
25 -26 0
26 24 27 0
-26 -27 0
-24 -27 0
3 -4 28 0
-3 -28 0
4 -28 0
28 5 29 0
-28 -29 0
-5 -29 0
29 30 31 0
-29 -31 0
-30 -31 0
-29 -30 32 0
29 -32 0
30 -32 0
31 32 33 0
-31 -33 0
-32 -33 0
27 -33 34 0
-27 -34 0
33 -34 0
34 32 35 0
-34 -35 0
-32 -35 0
5 -6 36 0
-5 -36 0
6 -36 0
36 7 37 0
-36 -37 0
-7 -37 0
37 38 39 0
-37 -39 0
-38 -39 0
-37 -38 40 0
37 -40 0
38 -40 0
39 40 41 0
-39 -41 0
-40 -41 0
35 -41 42 0
-35 -42 0
41 -42 0
42 40 43 0
-42 -43 0
-40 -43 0
7 -8 44 0
-7 -44 0
8 -44 0
44 9 45 0
-44 -45 0
-9 -45 0
45 46 47 0
-45 -47 0
-46 -47 0
-45 -46 48 0
45 -48 0
46 -48 0
47 48 49 0
-47 -49 0
-48 -49 0
43 -49 50 0
-43 -50 0
49 -50 0
50 48 51 0
-50 -51 0
-48 -51 0
9 -10 52 0
-9 -52 0
10 -52 0
52 11 53 0
-52 -53 0
-11 -53 0
53 54 55 0
-53 -55 0
-54 -55 0
-53 -54 56 0
53 -56 0
54 -56 0
55 56 57 0
-55 -57 0
-56 -57 0
51 -57 58 0
-51 -58 0
57 -58 0
58 56 59 0
-58 -59 0
-56 -59 0
11 -12 60 0
-11 -60 0
12 -60 0
60 13 61 0
-60 -61 0
-13 -61 0
61 62 63 0
-61 -63 0
-62 -63 0
-61 -62 64 0
61 -64 0
62 -64 0
63 64 65 0
-63 -65 0
-64 -65 0
59 -65 66 0
-59 -66 0
65 -66 0
66 64 67 0
-66 -67 0
-64 -67 0
-17 67 68 0
17 -68 0
-67 -68 0
17 -67 69 0
-17 -69 0
67 -69 0
68 69 70 0
-68 -70 0
-69 -70 0
19 25 71 0
-19 -71 0
-25 -71 0
71 26 72 0
-71 -72 0
-26 -72 0
72 62 73 0
-72 -73 0
-62 -73 0
-72 -62 74 0
72 -74 0
62 -74 0
73 74 75 0
-73 -75 0
-74 -75 0
-75 -54 76 0
75 -76 0
54 -76 0
18 1 77 0
-18 -77 0
-1 -77 0
77 19 78 0
-77 -78 0
-19 -78 0
-76 -78 79 0
76 -79 0
78 -79 0
79 74 80 0
-79 -80 0
-74 -80 0
-27 33 81 0
27 -81 0
-33 -81 0
81 34 82 0
-81 -82 0
-34 -82 0
82 83 84 0
-82 -84 0
-83 -84 0
-82 -83 85 0
82 -85 0
83 -85 0
84 85 86 0
-84 -86 0
-85 -86 0
80 -86 87 0
-80 -87 0
86 -87 0
87 85 88 0
-87 -88 0
-85 -88 0
-35 41 89 0
35 -89 0
-41 -89 0
89 42 90 0
-89 -90 0
-42 -90 0
90 83 91 0
-90 -91 0
-83 -91 0
-90 -83 92 0
90 -92 0
83 -92 0
91 92 93 0
-91 -93 0
-92 -93 0
88 -93 94 0
-88 -94 0
93 -94 0
94 92 95 0
-94 -95 0
-92 -95 0
-43 49 96 0
43 -96 0
-49 -96 0
96 50 97 0
-96 -97 0
-50 -97 0
97 83 98 0
-97 -98 0
-83 -98 0
-97 -83 99 0
97 -99 0
83 -99 0
98 99 100 0
-98 -100 0
-99 -100 0
95 -100 101 0
-95 -101 0
100 -101 0
101 99 102 0
-101 -102 0
-99 -102 0
-51 57 103 0
51 -103 0
-57 -103 0
103 58 104 0
-103 -104 0
-58 -104 0
104 83 105 0
-104 -105 0
-83 -105 0
-104 -83 106 0
104 -106 0
83 -106 0
105 106 107 0
-105 -107 0
-106 -107 0
102 -107 108 0
-102 -108 0
107 -108 0
108 106 109 0
-108 -109 0
-106 -109 0
-59 65 110 0
59 -110 0
-65 -110 0
110 66 111 0
-110 -111 0
-66 -111 0
111 83 112 0
-111 -112 0
-83 -112 0
-111 -83 113 0
111 -113 0
83 -113 0
112 113 114 0
-112 -114 0
-113 -114 0
109 -114 115 0
-109 -115 0
114 -115 0
115 113 116 0
-115 -116 0
-113 -116 0
70 116 117 0
-70 -117 0
-116 -117 0
-70 -116 118 0
70 -118 0
116 -118 0
117 118 119 0
-117 -119 0
-118 -119 0
-88 93 120 0
88 -120 0
-93 -120 0
120 94 121 0
-120 -121 0
-94 -121 0
-80 86 122 0
80 -122 0
-86 -122 0
122 87 123 0
-122 -123 0
-87 -123 0
121 123 124 0
-121 -124 0
-123 -124 0
75 54 125 0
-75 -125 0
-54 -125 0
-125 78 126 0
125 -126 0
-78 -126 0
126 79 127 0
-126 -127 0
-79 -127 0
-95 100 128 0
95 -128 0
-100 -128 0
128 101 129 0
-128 -129 0
-101 -129 0
127 129 130 0
-127 -130 0
-129 -130 0
-102 107 131 0
102 -131 0
-107 -131 0
131 108 132 0
-131 -132 0
-108 -132 0
-130 132 133 0
130 -133 0
-132 -133 0
-109 114 134 0
109 -134 0
-114 -134 0
134 115 135 0
-134 -135 0
-115 -135 0
-133 135 136 0
133 -136 0
-135 -136 0
-124 -136 137 0
124 -137 0
136 -137 0
-119 137 138 0
119 -138 0
-137 -138 0
138 0
